c SAT Generator for power-law distributed variable frequencies
c -g u -v 20 -c 91 -k 3 -p 2.750000 -b 3.200000 -f /home/schmidt/Devel/ni-kop-sat/data/ensemble/ruf20-91/ruf20-91-623 -u 1 -U 1 -s 1626558082
p cnf 20 91
-2 14 17 0
-1 13 14 0
-6 -8 -13 0
-5 8 10 0
-8 11 12 0
7 -13 18 0
-4 15 -18 0
5 10 19 0
-1 2 -8 0
4 -8 -19 0
-2 -9 13 0
-4 -7 8 0
3 -5 11 0
10 -14 -20 0
5 -11 -20 0
-2 -11 -16 0
-6 -11 18 0
8 -19 -20 0
3 14 17 0
3 -12 -19 0
3 -7 -9 0
1 -18 -20 0
3 10 13 0
-3 -13 15 0
-5 8 -18 0
-4 -10 -15 0
2 3 -15 0
-10 -15 -20 0
15 16 19 0
6 -13 -15 0
-6 10 19 0
-10 -15 -18 0
-1 -15 -18 0
-4 -11 14 0
-18 19 -20 0
1 -11 -12 0
-4 -13 -17 0
-5 10 -17 0
10 -15 18 0
1 16 -19 0
-3 7 -17 0
2 16 17 0
-5 -12 19 0
2 -9 11 0
6 -7 -10 0
2 -8 -15 0
-6 -12 17 0
-6 8 14 0
10 14 15 0
-2 9 -18 0
-5 16 19 0
4 -6 8 0
1 -8 -18 0
-2 3 18 0
11 15 -19 0
-4 12 13 0
5 11 -19 0
10 12 -18 0
-2 8 18 0
1 -6 -16 0
-4 -6 -19 0
2 4 8 0
-1 -8 12 0
3 8 -14 0
3 4 -11 0
-9 -12 16 0
1 10 20 0
-7 11 -20 0
-12 13 -16 0
-1 -3 5 0
1 9 18 0
-8 -11 13 0
5 19 -20 0
-4 -13 15 0
1 -15 -18 0
10 -18 20 0
2 -12 16 0
-4 12 -13 0
-10 -19 20 0
4 12 17 0
-2 -7 15 0
3 10 -20 0
-4 8 -10 0
-3 -4 -15 0
7 13 -18 0
-4 -15 20 0
6 -15 16 0
4 13 14 0
3 -7 16 0
-2 -7 13 0
-13 15 -17 0
